instances/pace2017_tw_bonus/aes_24_4_keyfind_5.gaifman_3.gr
p tw 104 380
1 2
1 3
1 4
1 5
1 6
1 7
1 8
1 25
1 49
1 50
1 51
1 52
1 53
1 54
1 55
1 56
1 57
2 3
2 4
2 5
2 6
2 7
2 8
2 26
2 49
2 50
2 51
2 52
2 53
2 54
2 55
2 56
2 58
3 4
3 5
3 6
3 7
3 8
3 27
3 49
3 50
3 51
3 52
3 53
3 54
3 55
3 56
3 59
4 5
4 6
4 7
4 8
4 28
4 49
4 50
4 51
4 52
4 53
4 54
4 55
4 56
4 60
5 6
5 7
5 8
5 29
5 49
5 50
5 51
5 52
5 53
5 54
5 55
5 56
5 61
6 7
6 8
6 30
6 49
6 50
6 51
6 52
6 53
6 54
6 55
6 56
6 62
7 8
7 31
7 49
7 50
7 51
7 52
7 53
7 54
7 55
7 56
7 63
8 32
8 49
8 50
8 51
8 52
8 53
8 54
8 55
8 56
8 64
9 17
9 25
9 73
9 89
10 18
10 26
10 74
10 90
11 19
11 27
11 75
11 91
12 20
12 28
12 76
12 92
13 21
13 29
13 77
13 93
14 22
14 30
14 78
14 94
15 23
15 31
15 79
15 95
16 24
16 32
16 80
16 96
17 25
17 33
18 26
18 34
19 27
19 35
20 28
20 36
21 29
21 37
22 30
22 38
23 31
23 39
24 32
24 40
25 33
25 41
25 57
25 73
25 81
25 89
25 97
26 34
26 42
26 58
26 74
26 82
26 90
26 98
27 35
27 43
27 59
27 75
27 83
27 91
27 99
28 36
28 44
28 60
28 76
28 84
28 92
28 100
29 37
29 45
29 61
29 77
29 85
29 93
29 101
30 38
30 46
30 62
30 78
30 86
30 94
30 102
31 39
31 47
31 63
31 79
31 87
31 95
31 103
32 40
32 48
32 64
32 80
32 88
32 96
32 104
33 41
34 42
35 43
36 44
37 45
38 46
39 47
40 48
41 49
41 81
41 97
42 50
42 82
42 98
43 51
43 83
43 99
44 52
44 84
44 100
45 53
45 85
45 101
46 54
46 86
46 102
47 55
47 87
47 103
48 56
48 88
48 104
49 50
49 51
49 52
49 53
49 54
49 55
49 56
50 51
50 52
50 53
50 54
50 55
50 56
51 52
51 53
51 54
51 55
51 56
52 53
52 54
52 55
52 56
53 54
53 55
53 56
54 55
54 56
55 56
57 65
58 66
59 67
60 68
61 69
62 70
63 71
64 72
65 66
65 67
65 68
65 69
65 70
65 71
65 72
66 67
66 68
66 69
66 70
66 71
66 72
67 68
67 69
67 70
67 71
67 72
68 69
68 70
68 71
68 72
69 70
69 71
69 72
70 71
70 72
71 72
73 89
74 90
75 91
76 92
77 93
78 94
79 95
80 96
81 97
82 98
83 99
84 100
85 101
86 102
87 103
88 104
89 90
89 91
89 92
89 93
89 94
89 95
89 96
90 91
90 92
90 93
90 94
90 95
90 96
91 92
91 93
91 94
91 95
91 96
92 93
92 94
92 95
92 96
93 94
93 95
93 96
94 95
94 96
95 96
97 98
97 99
97 100
97 101
97 102
97 103
97 104
98 99
98 100
98 101
98 102
98 103
98 104
99 100
99 101
99 102
99 103
99 104
100 101
100 102
100 103
100 104
101 102
101 103
101 104
102 103
102 104
103 104
